p edge 25 90
e 1 2
e 1 3
e 1 6
e 1 8
e 1 11
e 1 17
e 1 20
e 2 3
e 2 5
e 2 14
e 2 17
e 2 18
e 2 19
e 2 22
e 3 7
e 3 17
e 3 20
e 3 22
e 4 5
e 4 6
e 4 7
e 4 8
e 4 10
e 4 16
e 4 18
e 4 19
e 4 22
e 4 24
e 5 9
e 5 10
e 5 11
e 5 14
e 5 17
e 5 18
e 5 19
e 5 20
e 5 23
e 5 25
e 6 7
e 6 10
e 6 16
e 6 25
e 7 9
e 7 16
e 7 18
e 7 22
e 7 25
e 8 10
e 8 12
e 8 13
e 8 14
e 9 12
e 9 13
e 9 16
e 9 17
e 9 22
e 10 11
e 10 20
e 10 23
e 11 13
e 11 15
e 11 17
e 12 13
e 12 15
e 12 16
e 12 22
e 13 15
e 13 17
e 13 19
e 13 20
e 13 25
e 15 18
e 15 19
e 16 18
e 16 19
e 16 21
e 16 24
e 17 18
e 17 22
e 17 25
e 18 19
e 18 25
e 19 24
e 20 21
e 20 22
e 20 23
e 21 25
e 22 23
e 22 24
e 23 25
